Route #1: 1 35 41 39 28 22 9 18 31 47 1
Route #2: 1 32 55 42 44 53 63 8 1
Route #3: 1 52 56 60 15 36 37 49 23 5 25 10 4 1
Route #4: 1 34 30 12 29 57 14 17 1
Route #5: 1 50 2 27 40 1
Route #6: 1 38 13 11 19 51 1
Route #7: 1 6 16 20 61 33 62 1
Route #8: 1 24 26 58 43 64 3 21 1
Route #9: 1 45 46 59 54 7 48 1
cost 990.3757599213972